INCAR created by Atomic Simulation Environment
 ENCUT = 520.000000
 SIGMA = 0.010000
 EDIFF = 1.00e-05
 NEDOS = 3000
 SYMPREC = 1.00e-08
 ALGO = All
 GGA = PE
 LHFCALC = .TRUE.
 HFSCREEN = 0.2
 VDW_S8 = 2.310
 VDW_A1 = 0.383
 VDW_A2 = 5.685
 IVDW = 12
 PREC = Accurate
 ISMEAR = 0
 ISYM = 0
 ICHARG = 1
 LORBIT = 11
 NELM = 150
 NELMIN = 3
 NCORE = 24
 LASPH = .FALSE.
 LCHARG = .TRUE.
 LWAVE = .TRUE.
 LREAL = .FALSE.
