Fe  H Au  C  N                          
   1.00000000000000     
     2.6436193588683037   -9.7227671993750153   -0.0000254084015313
    10.0756457482676058   -0.0469517512440262   -0.0000354645240717
    -0.0000008222571310   -0.0000152465015463   15.0585980206052081
   Fe   H    Au   C    N 
     2    16     4    32    20
Direct
  0.2499983465380282  0.2499992359236103  0.6154222403591660
  0.7500009641805931  0.7499986006135870  0.3845789139022600
  0.4183168822232233  0.0816836020318306  0.7554269391140878
  0.0816811106234923  0.4183161828895408  0.7554273098949693
  0.5816857283997905  0.9183170667837715  0.2445758102183788
  0.9183172582522090  0.5816804187461884  0.2445745825613272
  0.4264412279233554  0.0735608303152020  0.9191431915412949
  0.0735586626790763  0.4264412643327589  0.9191435620707864
  0.5735618565728089  0.9264422094674458  0.0808599050329448
  0.9264410596440058  0.5735578180460763  0.0808586391043562
  0.4260483241058139  0.0739526566041633  0.3126375894841971
  0.0739506929670597  0.4260468556107639  0.3126377184417919
  0.5739514402798989  0.9260479233259176  0.6873621416662488
  0.9260488742718138  0.5739522584937049  0.6873625272874335
  0.4182414267853005  0.0817579387143255  0.4760221613369708
  0.0817551979447941  0.4182409194839138  0.4760220642998618
  0.5817573079853631  0.9182407180982466  0.5239778415272554
  0.9182432303352073  0.5817573346119573  0.5239780845172106
  0.7499987988102816  0.2500005074636178  0.6064061528778453
  0.7499971556036655  0.2499990277977560  0.3935914554821593
  0.2500002628863598  0.7500000723891418  0.3935888756726129
  0.2499983836854867  0.7499997909582490  0.6064046800810061
  0.5598876957648784  0.2320891526944280  0.6107078785976157
  0.9401029020709757  0.2679103892163823  0.6107077755356798
  0.7320876488699000  0.0599036628387353  0.3892923414451417
  0.7679094709803209  0.4400997742725323  0.3892905639191042
  0.4400966002197180  0.7679107189245897  0.3892894984690471
  0.0599067021144890  0.7320884634822420  0.3892900292212431
  0.2679101277152540  0.9401017243963068  0.6107060786998986
  0.2320872306958890  0.5598936108761379  0.6107071128047608
  0.3438781815898082  0.1561225565882225  0.7941014469826442
  0.1561209823859926  0.3438782887542260  0.7941016678328339
  0.6561237920300087  0.8438776310328393  0.2059001036915475
  0.8438788043293073  0.6561198858511332  0.2058994603831792
  0.3479855324724568  0.1520163047809717  0.8857563777694750
  0.1520147712073410  0.3479858968346718  0.8857566431129911
  0.6520169939002756  0.8479851198868644  0.1142456229992845
  0.8479855614088052  0.6520137932305587  0.1142449192795567
  0.2500007142361156  0.2500015995277565  0.9331151811939762
  0.7500010288099830  0.7499994577645452  0.0668867881338073
  0.2500011391632526  0.2500020843112694  0.0306865676810020
  0.7500005377501680  0.7499997300474774  0.9693151529668711
  0.2500002926617952  0.2500007359214678  0.2009930793244763
  0.7500002229307867  0.7500002779420214  0.7990078243358809
  0.2499993606085056  0.2499996249872964  0.2984281237511723
  0.7500002840259157  0.7500002706997009  0.7015725244013069
  0.3477719069232563  0.1522274750794210  0.3458326747521028
  0.1522261212600000  0.3477715374604600  0.3458327949483007
  0.6522275004077471  0.8477721736877086  0.6541679077054710
  0.8477730743208411  0.6522277636964162  0.6541680775908674
  0.3438867070242395  0.1561120533642821  0.4373353924804135
  0.1561104167088132  0.3438867330476967  0.4373354337491193
  0.6561120949041310  0.8438868425986215  0.5626658317153499
  0.8438885393639950  0.6561117418194513  0.5626659381618637
  0.4466932014634466  0.2275014643542264  0.6142950531395073
  0.0533058217180979  0.2724977107830853  0.6142950384131538
  0.7275010878741597  0.9466900402642509  0.3857060684485987
  0.7724989687620791  0.5533052681346931  0.3857049565163280
  0.5533091635727772  0.7724977269432856  0.3857047531927122
  0.9466919725412737  0.7274988903703701  0.3857054050078332
  0.2724981024374316  0.0533070956713786  0.6142944387254161
  0.2275000412205586  0.4466928616427808  0.6142949465413707
  0.2499994491462942  0.2500001576438748  0.7484258306647433
  0.7500012016077022  0.7499982350808594  0.2515752168185728
  0.3467945240510559  0.1532112302868711  0.0726603065572533
  0.1532082608250960  0.3467931412118404  0.0726607191854569
  0.6532083570923959  0.8467915389964134  0.9273408515366270
  0.8467923653446334  0.6532079861696758  0.9273402622017670
  0.3468150044997387  0.1531897540000529  0.1590361659093418
  0.1531869828591184  0.3468132282764955  0.1590365047554485
  0.6531873981892033  0.8468126585337075  0.8409653626125859
  0.8468130126529445  0.6531873431759223  0.8409647821533497
  0.2499985058887475  0.2499993211141032  0.4828735668087916
  0.7500004112520458  0.7499988773310804  0.5171278475736472
 
  0.00000000E+00  0.00000000E+00  0.00000000E+00
  0.00000000E+00  0.00000000E+00  0.00000000E+00
  0.00000000E+00  0.00000000E+00  0.00000000E+00
  0.00000000E+00  0.00000000E+00  0.00000000E+00
  0.00000000E+00  0.00000000E+00  0.00000000E+00
  0.00000000E+00  0.00000000E+00  0.00000000E+00
  0.00000000E+00  0.00000000E+00  0.00000000E+00
  0.00000000E+00  0.00000000E+00  0.00000000E+00
  0.00000000E+00  0.00000000E+00  0.00000000E+00
  0.00000000E+00  0.00000000E+00  0.00000000E+00
  0.00000000E+00  0.00000000E+00  0.00000000E+00
  0.00000000E+00  0.00000000E+00  0.00000000E+00
  0.00000000E+00  0.00000000E+00  0.00000000E+00
  0.00000000E+00  0.00000000E+00  0.00000000E+00
  0.00000000E+00  0.00000000E+00  0.00000000E+00
  0.00000000E+00  0.00000000E+00  0.00000000E+00
  0.00000000E+00  0.00000000E+00  0.00000000E+00
  0.00000000E+00  0.00000000E+00  0.00000000E+00
  0.00000000E+00  0.00000000E+00  0.00000000E+00
  0.00000000E+00  0.00000000E+00  0.00000000E+00
  0.00000000E+00  0.00000000E+00  0.00000000E+00
  0.00000000E+00  0.00000000E+00  0.00000000E+00
  0.00000000E+00  0.00000000E+00  0.00000000E+00
  0.00000000E+00  0.00000000E+00  0.00000000E+00
  0.00000000E+00  0.00000000E+00  0.00000000E+00
  0.00000000E+00  0.00000000E+00  0.00000000E+00
  0.00000000E+00  0.00000000E+00  0.00000000E+00
  0.00000000E+00  0.00000000E+00  0.00000000E+00
  0.00000000E+00  0.00000000E+00  0.00000000E+00
  0.00000000E+00  0.00000000E+00  0.00000000E+00
  0.00000000E+00  0.00000000E+00  0.00000000E+00
  0.00000000E+00  0.00000000E+00  0.00000000E+00
  0.00000000E+00  0.00000000E+00  0.00000000E+00
  0.00000000E+00  0.00000000E+00  0.00000000E+00
  0.00000000E+00  0.00000000E+00  0.00000000E+00
  0.00000000E+00  0.00000000E+00  0.00000000E+00
  0.00000000E+00  0.00000000E+00  0.00000000E+00
  0.00000000E+00  0.00000000E+00  0.00000000E+00
  0.00000000E+00  0.00000000E+00  0.00000000E+00
  0.00000000E+00  0.00000000E+00  0.00000000E+00
  0.00000000E+00  0.00000000E+00  0.00000000E+00
  0.00000000E+00  0.00000000E+00  0.00000000E+00
  0.00000000E+00  0.00000000E+00  0.00000000E+00
  0.00000000E+00  0.00000000E+00  0.00000000E+00
  0.00000000E+00  0.00000000E+00  0.00000000E+00
  0.00000000E+00  0.00000000E+00  0.00000000E+00
  0.00000000E+00  0.00000000E+00  0.00000000E+00
  0.00000000E+00  0.00000000E+00  0.00000000E+00
  0.00000000E+00  0.00000000E+00  0.00000000E+00
  0.00000000E+00  0.00000000E+00  0.00000000E+00
  0.00000000E+00  0.00000000E+00  0.00000000E+00
  0.00000000E+00  0.00000000E+00  0.00000000E+00
  0.00000000E+00  0.00000000E+00  0.00000000E+00
  0.00000000E+00  0.00000000E+00  0.00000000E+00
  0.00000000E+00  0.00000000E+00  0.00000000E+00
  0.00000000E+00  0.00000000E+00  0.00000000E+00
  0.00000000E+00  0.00000000E+00  0.00000000E+00
  0.00000000E+00  0.00000000E+00  0.00000000E+00
  0.00000000E+00  0.00000000E+00  0.00000000E+00
  0.00000000E+00  0.00000000E+00  0.00000000E+00
  0.00000000E+00  0.00000000E+00  0.00000000E+00
  0.00000000E+00  0.00000000E+00  0.00000000E+00
  0.00000000E+00  0.00000000E+00  0.00000000E+00
  0.00000000E+00  0.00000000E+00  0.00000000E+00
  0.00000000E+00  0.00000000E+00  0.00000000E+00
  0.00000000E+00  0.00000000E+00  0.00000000E+00
  0.00000000E+00  0.00000000E+00  0.00000000E+00
  0.00000000E+00  0.00000000E+00  0.00000000E+00
  0.00000000E+00  0.00000000E+00  0.00000000E+00
  0.00000000E+00  0.00000000E+00  0.00000000E+00
  0.00000000E+00  0.00000000E+00  0.00000000E+00
  0.00000000E+00  0.00000000E+00  0.00000000E+00
  0.00000000E+00  0.00000000E+00  0.00000000E+00
  0.00000000E+00  0.00000000E+00  0.00000000E+00
