Sr  H  C  S  O                          
   1.00000000000000     
     4.8822619228908923   -0.0192408672100046    0.0139268912532824
     1.9300331126912076    4.4846646841373614    0.0139140778187617
     0.7618217242902056    0.4993259944361932   14.8673519817358333
   Sr   H    C    S    O 
     2     8     4     4    12
Direct
  0.0280331751028829  0.9719599267621014  0.7499994060465552
  0.9719619113463657  0.0280414598470636  0.2500001025077062
  0.6829985373166266  0.6813056397846173  0.4662684184971556
  0.3186609119704604  0.3169928166589202  0.0337354538079983
  0.3170011916748342  0.3186468756337265  0.5337367647432850
  0.6812850676210945  0.6829970435376330  0.9662626242891890
  0.8977394533591159  0.8300635335349693  0.5239741295254423
  0.1699122848724853  0.1022696425544735  0.9760186584933648
  0.1022552523449626  0.1699258642775111  0.4760123099875967
  0.8300665683800887  0.8977234146273062  0.0239684683506077
  0.8592846229543964  0.6286738422132934  0.5141970979377665
  0.3713032026280286  0.1407106660474966  0.9858047336228061
  0.1407046294277579  0.3713172815955654  0.4858050430392570
  0.6286581975788978  0.8592873720344337  0.0141929539838632
  0.7130097925859223  0.5469163999733290  0.6178476473159865
  0.4530853288265753  0.2870593243657471  0.8821561492084060
  0.2870766663825693  0.4531022866849496  0.3821581601761631
  0.5469018756042068  0.7129907549625008  0.1178421130427558
  0.9112350549663562  0.5464544355601553  0.6881630246986916
  0.4535044337563530  0.0888097093179939  0.8118310973920846
  0.0888186812531901  0.4535171373869443  0.3118295098614419
  0.5464658711113299  0.9112203436874293  0.1881612173665209
  0.7132641120365650  0.2503239729981988  0.6140937555277746
  0.7496538290478267  0.2867673922237883  0.8859092924918257
  0.2867698831415733  0.7496730390753273  0.3859132769834546
  0.2503202139616130  0.7132595227511891  0.1140920181233024
  0.4184549537527829  0.7764182132627794  0.6283336676699951
  0.2235340640016638  0.5816101503410287  0.8716769209395477
  0.5816243886829339  0.2235511685553589  0.3716797027759793
  0.7764258443105583  0.4184307697441467  0.1283262815934738
 
  0.00000000E+00  0.00000000E+00  0.00000000E+00
  0.00000000E+00  0.00000000E+00  0.00000000E+00
  0.00000000E+00  0.00000000E+00  0.00000000E+00
  0.00000000E+00  0.00000000E+00  0.00000000E+00
  0.00000000E+00  0.00000000E+00  0.00000000E+00
  0.00000000E+00  0.00000000E+00  0.00000000E+00
  0.00000000E+00  0.00000000E+00  0.00000000E+00
  0.00000000E+00  0.00000000E+00  0.00000000E+00
  0.00000000E+00  0.00000000E+00  0.00000000E+00
  0.00000000E+00  0.00000000E+00  0.00000000E+00
  0.00000000E+00  0.00000000E+00  0.00000000E+00
  0.00000000E+00  0.00000000E+00  0.00000000E+00
  0.00000000E+00  0.00000000E+00  0.00000000E+00
  0.00000000E+00  0.00000000E+00  0.00000000E+00
  0.00000000E+00  0.00000000E+00  0.00000000E+00
  0.00000000E+00  0.00000000E+00  0.00000000E+00
  0.00000000E+00  0.00000000E+00  0.00000000E+00
  0.00000000E+00  0.00000000E+00  0.00000000E+00
  0.00000000E+00  0.00000000E+00  0.00000000E+00
  0.00000000E+00  0.00000000E+00  0.00000000E+00
  0.00000000E+00  0.00000000E+00  0.00000000E+00
  0.00000000E+00  0.00000000E+00  0.00000000E+00
  0.00000000E+00  0.00000000E+00  0.00000000E+00
  0.00000000E+00  0.00000000E+00  0.00000000E+00
  0.00000000E+00  0.00000000E+00  0.00000000E+00
  0.00000000E+00  0.00000000E+00  0.00000000E+00
  0.00000000E+00  0.00000000E+00  0.00000000E+00
  0.00000000E+00  0.00000000E+00  0.00000000E+00
  0.00000000E+00  0.00000000E+00  0.00000000E+00
  0.00000000E+00  0.00000000E+00  0.00000000E+00
