INCAR created by Atomic Simulation Environment
 LHFCALC = .TRUE.
 HFSCREEN = 0.2
 VDW_S8 = 2.310
 VDW_A1 = 0.383
 VDW_A2 = 5.685
 ENCUT = 520.000000
 SIGMA = 0.010000
 EDIFF = 1.00e-05
 NEDOS = 3000
 SYMPREC = 1.00e-08
 ALGO = All
 GGA = PE
 PREC = Accurate
 ISMEAR = 0
 ICHARG = 1
 ISYM = 0
 LORBIT = 11
 NELM = 300
 NELMIN = 3
 IVDW = 12
 NCORE = 24
 LASPH = .FALSE.
 LCHARG = .TRUE.
 LWAVE = .TRUE.
 LREAL = .FALSE.
 ISPIN = 2
 MAGMOM = 2*5.0 16*0.0 4*0.0 32*0.0 20*0.0

