Sr  H  C  S  O                          
   1.00000000000000     
     4.8822619228908923   -0.0192408672100046    0.0139268912532824
     1.9300331126912076    4.4846646841373614    0.0139140778187617
     0.7618217242902056    0.4993259944361932   14.8673519817358333
   Sr   H    C    S    O 
     2     8     4     4    12
Direct
  0.0280331751028839  0.9719599267621035  0.7499994060465554
  0.9719619113463622  0.0280414598470671  0.2500001025077054
  0.6829985373166281  0.6813056397846182  0.4662684184971582
  0.3186609119704613  0.3169928166589173  0.0337354538079992
  0.3170011916748336  0.3186468756337248  0.5337367647432885
  0.6812850676210971  0.6829970435376325  0.9662626242891861
  0.8977394533591152  0.8300635335349682  0.5239741295254419
  0.1699122848724883  0.1022696425544751  0.9760186584933663
  0.1022552523449605  0.1699258642775092  0.4760123099875955
  0.8300665683800901  0.8977234146273076  0.0239684683506098
  0.8592846229543980  0.6286738422132956  0.5141970979377675
  0.3713032026280274  0.1407106660474966  0.9858047336228069
  0.1407046294277592  0.3713172815955659  0.4858050430392566
  0.6286581975789005  0.8592873720344372  0.0141929539838657
  0.7130097925859218  0.5469163999733269  0.6178476473159833
  0.4530853288265746  0.2870593243657495  0.8821561492084058
  0.2870766663825677  0.4531022866849526  0.3821581601761608
  0.5469018756042061  0.7129907549624974  0.1178421130427552
  0.9112350549663546  0.5464544355601575  0.6881630246986887
  0.4535044337563505  0.0888097093179923  0.8118310973920870
  0.0888186812531870  0.4535171373869460  0.3118295098614396
  0.5464658711113302  0.9112203436874324  0.1881612173665204
  0.7132641120365619  0.2503239729981956  0.6140937555277759
  0.7496538290478298  0.2867673922237870  0.8859092924918244
  0.2867698831415737  0.7496730390753257  0.3859132769834517
  0.2503202139616150  0.7132595227511871  0.1140920181233014
  0.4184549537527857  0.7764182132627795  0.6283336676699918
  0.2235340640016616  0.5816101503410280  0.8716769209395494
  0.5816243886829326  0.2235511685553604  0.3716797027759782
  0.7764258443105589  0.4184307697441483  0.1283262815934734
 
  0.00000000E+00  0.00000000E+00  0.00000000E+00
  0.00000000E+00  0.00000000E+00  0.00000000E+00
  0.00000000E+00  0.00000000E+00  0.00000000E+00
  0.00000000E+00  0.00000000E+00  0.00000000E+00
  0.00000000E+00  0.00000000E+00  0.00000000E+00
  0.00000000E+00  0.00000000E+00  0.00000000E+00
  0.00000000E+00  0.00000000E+00  0.00000000E+00
  0.00000000E+00  0.00000000E+00  0.00000000E+00
  0.00000000E+00  0.00000000E+00  0.00000000E+00
  0.00000000E+00  0.00000000E+00  0.00000000E+00
  0.00000000E+00  0.00000000E+00  0.00000000E+00
  0.00000000E+00  0.00000000E+00  0.00000000E+00
  0.00000000E+00  0.00000000E+00  0.00000000E+00
  0.00000000E+00  0.00000000E+00  0.00000000E+00
  0.00000000E+00  0.00000000E+00  0.00000000E+00
  0.00000000E+00  0.00000000E+00  0.00000000E+00
  0.00000000E+00  0.00000000E+00  0.00000000E+00
  0.00000000E+00  0.00000000E+00  0.00000000E+00
  0.00000000E+00  0.00000000E+00  0.00000000E+00
  0.00000000E+00  0.00000000E+00  0.00000000E+00
  0.00000000E+00  0.00000000E+00  0.00000000E+00
  0.00000000E+00  0.00000000E+00  0.00000000E+00
  0.00000000E+00  0.00000000E+00  0.00000000E+00
  0.00000000E+00  0.00000000E+00  0.00000000E+00
  0.00000000E+00  0.00000000E+00  0.00000000E+00
  0.00000000E+00  0.00000000E+00  0.00000000E+00
  0.00000000E+00  0.00000000E+00  0.00000000E+00
  0.00000000E+00  0.00000000E+00  0.00000000E+00
  0.00000000E+00  0.00000000E+00  0.00000000E+00
  0.00000000E+00  0.00000000E+00  0.00000000E+00
