Fe  H Au  C  N                          
   1.00000000000000     
     3.0327972540000001   -9.9445705110000002   -0.0005783880000000
    10.3892096320000000   -0.3660969750000000    0.0054680890000000
     0.0082982530000000    0.0033554310000000   15.4604443380000003
   Fe   H    Au   C    N 
     2    16     4    32    20
Direct
  0.2500005134758041  0.2500121547414693  0.6158456575003868
  0.7500988428836095  0.7499872483357777  0.3841223913953158
  0.4199879323256539  0.0800049298121905  0.7656749821095303
  0.0799072543095605  0.4200949596734773  0.7655704352349915
  0.5799610724931483  0.9194384067714623  0.2346638810741908
  0.9203115082600419  0.5798570513673553  0.2344254478029697
  0.4283133396000451  0.0716841963957080  0.9255365138865841
  0.0717738388079923  0.4282342086725990  0.9254397595284161
  0.5716930864008916  0.9284635751842245  0.0744806367646405
  0.9284999731165513  0.5715045610880978  0.0743699191498948
  0.4279381550116526  0.0719287655174554  0.3081751143265308
  0.0720055153104369  0.4281100806601330  0.3080765726374537
  0.5718258318237233  0.9281692623662749  0.6920910674453324
  0.9279826158398734  0.5718793748449968  0.6919723271080471
  0.4200808414992707  0.0798290203144916  0.4675141476861953
  0.0799962283804305  0.4201078931798534  0.4674101806859099
  0.5796899659466632  0.9201354066857093  0.5324293224349219
  0.9200338133593675  0.5805964042120877  0.5321869930660910
  0.7499897708349934  0.2499818137820711  0.6061052746876996
  0.7500180201436351  0.2500293924277912  0.3940149768839234
  0.2499140409207712  0.7501113184726051  0.3937754141302108
  0.2500019484048650  0.7499960590521297  0.6059705237513455
  0.5698062604227871  0.2261933524725848  0.6101262368337004
  0.9301740494018205  0.2737684438561416  0.6101215983881545
  0.7261179744253710  0.0702186291026266  0.3898824564436367
  0.7738845075712319  0.4298835309602183  0.3898495303457352
  0.4300028802276259  0.7739852126665028  0.3896987923995070
  0.0699184128660448  0.7259834751243019  0.3900962071893872
  0.2737922182808035  0.9302218906563056  0.6101869788346619
  0.2261878690295305  0.5697569504690634  0.6102072577207736
  0.3446728111719679  0.1553217369210529  0.8034413351889285
  0.1552554556762047  0.3447360522122906  0.8033698436434591
  0.6552280147819260  0.8444987859461861  0.1965901571165460
  0.8449653898880172  0.6549113775174860  0.1963900608393061
  0.3491691918636732  0.1508288186127373  0.8927684682348627
  0.1508429375289637  0.3491619044907424  0.8926857272435385
  0.6509858616189490  0.8494334344466807  0.1072331239999684
  0.8493653682231468  0.6506624281034874  0.1070922249369843
  0.2500232486206713  0.2499776538521488  0.9387432465129848
  0.7500340556567693  0.7500715536152427  0.0612377194333789
  0.2500038198772430  0.2499958067654902  0.0337731302201334
  0.7499577616803492  0.7500043150735465  0.9662401901029156
  0.2499970886329734  0.2500057806152611  0.1996868572444015
  0.7500488053479728  0.7499986024394758  0.8003296987854256
  0.2499873292080821  0.2500204474296268  0.2945528185383353
  0.7499709646815802  0.7499324990030871  0.7054708673378727
  0.3490192570621176  0.1510152442675192  0.3405928050082991
  0.1509950221558185  0.3489839076722205  0.3405218468205575
  0.6508178306494870  0.8491452282976866  0.6596190252097500
  0.8488280866518565  0.6507621185078278  0.6594689197733956
  0.3448040537786667  0.1552151715448957  0.4297600091495468
  0.1552480203389024  0.3447363752203856  0.4297001172263961
  0.6549679927536260  0.8451279082269991  0.5704653371010266
  0.8448182548082954  0.6554786750981663  0.5702587987938941
  0.4629750844113687  0.2144341007464305  0.6145402439135026
  0.0370275418112627  0.2855225496341731  0.6145088683008666
  0.7159242617042807  0.9627134890677311  0.3861790611209912
  0.7840558229740751  0.5372685312267365  0.3846898269097920
  0.5375075229522466  0.7843383137623192  0.3860446650634586
  0.9625931136940338  0.7155112193908479  0.3849238833744622
  0.2855426983209313  0.0370737698671704  0.6145536456830030
  0.2144485172739010  0.4628929027471216  0.6145536756344256
  0.2499338656290888  0.2500499309332369  0.7592089209636725
  0.7499494653714791  0.7492869754293636  0.2405155060623727
  0.3477757598476856  0.1522556740957910  0.0747765443524813
  0.1522117722682950  0.3477755944045455  0.0745939990046551
  0.6522362978723635  0.8477662980413427  0.9252257743278705
  0.8477477238091424  0.6521991544303418  0.9254109216591360
  0.3478568843564460  0.1522158393822437  0.1588685818332962
  0.1521747685951453  0.3477760176375142  0.1586873114515512
  0.6522172108999911  0.8478419161862547  0.8411447223149366
  0.8478019052824948  0.6521965939659751  0.8413305468495835
  0.2500525757190104  0.2499449181441378  0.4737242828364359
  0.7500462410484587  0.7507272354898333  0.5265197167974733
 
  0.00000000E+00  0.00000000E+00  0.00000000E+00
  0.00000000E+00  0.00000000E+00  0.00000000E+00
  0.00000000E+00  0.00000000E+00  0.00000000E+00
  0.00000000E+00  0.00000000E+00  0.00000000E+00
  0.00000000E+00  0.00000000E+00  0.00000000E+00
  0.00000000E+00  0.00000000E+00  0.00000000E+00
  0.00000000E+00  0.00000000E+00  0.00000000E+00
  0.00000000E+00  0.00000000E+00  0.00000000E+00
  0.00000000E+00  0.00000000E+00  0.00000000E+00
  0.00000000E+00  0.00000000E+00  0.00000000E+00
  0.00000000E+00  0.00000000E+00  0.00000000E+00
  0.00000000E+00  0.00000000E+00  0.00000000E+00
  0.00000000E+00  0.00000000E+00  0.00000000E+00
  0.00000000E+00  0.00000000E+00  0.00000000E+00
  0.00000000E+00  0.00000000E+00  0.00000000E+00
  0.00000000E+00  0.00000000E+00  0.00000000E+00
  0.00000000E+00  0.00000000E+00  0.00000000E+00
  0.00000000E+00  0.00000000E+00  0.00000000E+00
  0.00000000E+00  0.00000000E+00  0.00000000E+00
  0.00000000E+00  0.00000000E+00  0.00000000E+00
  0.00000000E+00  0.00000000E+00  0.00000000E+00
  0.00000000E+00  0.00000000E+00  0.00000000E+00
  0.00000000E+00  0.00000000E+00  0.00000000E+00
  0.00000000E+00  0.00000000E+00  0.00000000E+00
  0.00000000E+00  0.00000000E+00  0.00000000E+00
  0.00000000E+00  0.00000000E+00  0.00000000E+00
  0.00000000E+00  0.00000000E+00  0.00000000E+00
  0.00000000E+00  0.00000000E+00  0.00000000E+00
  0.00000000E+00  0.00000000E+00  0.00000000E+00
  0.00000000E+00  0.00000000E+00  0.00000000E+00
  0.00000000E+00  0.00000000E+00  0.00000000E+00
  0.00000000E+00  0.00000000E+00  0.00000000E+00
  0.00000000E+00  0.00000000E+00  0.00000000E+00
  0.00000000E+00  0.00000000E+00  0.00000000E+00
  0.00000000E+00  0.00000000E+00  0.00000000E+00
  0.00000000E+00  0.00000000E+00  0.00000000E+00
  0.00000000E+00  0.00000000E+00  0.00000000E+00
  0.00000000E+00  0.00000000E+00  0.00000000E+00
  0.00000000E+00  0.00000000E+00  0.00000000E+00
  0.00000000E+00  0.00000000E+00  0.00000000E+00
  0.00000000E+00  0.00000000E+00  0.00000000E+00
  0.00000000E+00  0.00000000E+00  0.00000000E+00
  0.00000000E+00  0.00000000E+00  0.00000000E+00
  0.00000000E+00  0.00000000E+00  0.00000000E+00
  0.00000000E+00  0.00000000E+00  0.00000000E+00
  0.00000000E+00  0.00000000E+00  0.00000000E+00
  0.00000000E+00  0.00000000E+00  0.00000000E+00
  0.00000000E+00  0.00000000E+00  0.00000000E+00
  0.00000000E+00  0.00000000E+00  0.00000000E+00
  0.00000000E+00  0.00000000E+00  0.00000000E+00
  0.00000000E+00  0.00000000E+00  0.00000000E+00
  0.00000000E+00  0.00000000E+00  0.00000000E+00
  0.00000000E+00  0.00000000E+00  0.00000000E+00
  0.00000000E+00  0.00000000E+00  0.00000000E+00
  0.00000000E+00  0.00000000E+00  0.00000000E+00
  0.00000000E+00  0.00000000E+00  0.00000000E+00
  0.00000000E+00  0.00000000E+00  0.00000000E+00
  0.00000000E+00  0.00000000E+00  0.00000000E+00
  0.00000000E+00  0.00000000E+00  0.00000000E+00
  0.00000000E+00  0.00000000E+00  0.00000000E+00
  0.00000000E+00  0.00000000E+00  0.00000000E+00
  0.00000000E+00  0.00000000E+00  0.00000000E+00
  0.00000000E+00  0.00000000E+00  0.00000000E+00
  0.00000000E+00  0.00000000E+00  0.00000000E+00
  0.00000000E+00  0.00000000E+00  0.00000000E+00
  0.00000000E+00  0.00000000E+00  0.00000000E+00
  0.00000000E+00  0.00000000E+00  0.00000000E+00
  0.00000000E+00  0.00000000E+00  0.00000000E+00
  0.00000000E+00  0.00000000E+00  0.00000000E+00
  0.00000000E+00  0.00000000E+00  0.00000000E+00
  0.00000000E+00  0.00000000E+00  0.00000000E+00
  0.00000000E+00  0.00000000E+00  0.00000000E+00
  0.00000000E+00  0.00000000E+00  0.00000000E+00
  0.00000000E+00  0.00000000E+00  0.00000000E+00
