 H Rh  C  S  N  O                       
   1.00000000000000     
     7.8838755880631908    0.0075884038588335   -1.2217549931231362
    -0.1031814231042039   13.6460415530526387   -0.3676510065548010
    -0.0677602461031937   -0.0111111439903161   14.1242834986395263
   H    Rh   C    S    N    O 
    32     4    34     4     4    16
Direct
  0.5025099135934070  0.5099148437514387  0.8842866572474151
  0.4986590330058576  0.4846552400496407  0.1166115614943948
  0.4635101240744959  0.6358782164418315  0.8931026811798617
  0.5401417273447962  0.3590586640885505  0.1059688942084662
  0.3714287845286890  0.5668778747724659  0.7882858313623586
  0.6346285772699005  0.4275250122609862  0.2107586684474967
  0.8615092639692747  0.8265293871340731  0.9687284402279275
  0.1308208981631509  0.1712826438454158  0.0277771487599807
  0.6726266226633939  0.7707117162213706  0.9904071819264502
  0.3198973583013327  0.2253743755050337  0.0042426998107885
  0.7160248662731021  0.7727360348986849  0.8711823693543508
  0.2796024652636859  0.2243716496725483  0.1240882795922289
  0.4624919697280561  0.1368074033685645  0.6838164124054060
  0.5339617495569016  0.8572405729297827  0.3249517833665365
  0.4693005144871449  0.2013355638261274  0.5787698216393693
  0.5225973560640895  0.8052250762760877  0.4360002182021461
  0.5655548611763521  0.0837381893448850  0.5920297996608639
  0.4287873956755135  0.9215200772540015  0.4100507921658689
  0.0814601584625123  0.1241926591448461  0.2118890229767132
  0.8947580031333899  0.8866408248275448  0.7903604506066344
  0.8918600526596734  0.0568270865266385  0.1813055246546114
  0.0974369179040764  0.9401172665361628  0.8211659250859995
  0.0899931626225197  0.9951993848026319  0.1878861372647762
  0.9132999105053798  0.0149978009078779  0.8171050889991491
  0.4320264251341683  0.4770968126939934  0.3205925639875531
  0.5491270777069417  0.5297179591333645  0.6729414914406675
  0.3718606629564718  0.6462837268567725  0.5744850586248162
  0.6087495168638100  0.3604035750946863  0.4189687835207607
  0.0033584816318992  0.6527816960980530  0.7603921611257221
  0.0608371229480795  0.3463810223740253  0.2420410739810350
  0.8471813193076514  0.7531620428552301  0.6191831686324747
  0.2162863502760004  0.2418079760101222  0.3806867788787258
  0.0749309702690795  0.5318599546704945  0.0719522841323439
  0.9220273596066448  0.4664874728393613  0.9240260110273084
  0.0632045746518912  0.9248966729717196  0.4951463790476254
  0.9300843272812571  0.0804683700461908  0.5081666068070732
  0.2562428749511625  0.5441036441529121  0.9130419636821969
  0.7440865391629785  0.4529640830715920  0.0848246335666190
  0.4065823268293727  0.5661338016907891  0.8658442773982031
  0.5961759164991562  0.4289851649236240  0.1334166790130809
  0.8610617133783620  0.6699290206678441  0.9622805971123967
  0.1346809672386442  0.3278145537796320  0.0333707190190324
  0.7729678040586450  0.7664232588236999  0.9460010494072293
  0.2210572933262043  0.2308038682363502  0.0495640101116877
  0.2932854968048346  0.0826848471568837  0.5633720858171856
  0.7010611471300692  0.9211632251457829  0.4414857468096329
  0.4593600740682291  0.1282844120654971  0.6064078057605755
  0.5347648257518003  0.8743550588070406  0.4010297339816162
  0.0172646982896580  0.0360319866142333  0.3231913554651697
  0.9749855483151038  0.9700236937976712  0.6803180902833859
  0.0218992998791094  0.0534282275803690  0.2192342349188081
  0.9689343952923934  0.9527151255268933  0.7841475986747497
  0.2385235247080004  0.6193427567348309  0.2846320752918672
  0.7456842222271689  0.3868626317703914  0.7090104673131634
  0.2838303962226618  0.6379865042584143  0.3829685852148899
  0.6967639990962127  0.3688263702338048  0.6106864941139492
  0.2214997678474191  0.7207040888426874  0.4256245258042313
  0.7627687804700898  0.2865829235868347  0.5691557342514386
  0.3886914210960910  0.5707106239491679  0.4400202313888713
  0.5915805605594642  0.4357765496076595  0.5536001572028795
  0.4580723794462216  0.4883468542611169  0.3977378093662125
  0.5225500941673360  0.5182923081301709  0.5958233214484352
  0.4245537573479581  0.5837339057993205  0.5407552528197428
  0.5562172229243885  0.4229510143604287  0.4527976041928170
  0.9836052952463774  0.6301287909162241  0.6856116417791185
  0.0660927082335263  0.3617008721534773  0.3179688979326372
  0.8993865099101939  0.6807439292145219  0.6131069009246559
  0.1489593653332832  0.3091370344403828  0.3894915254200342
  0.9933840186635834  0.5253802017286802  0.5365349480108463
  0.0302561307779712  0.4536626722127721  0.4709680275204207
  0.0636423694091022  0.5191745314697442  0.6569480015095408
  0.9640608530242005  0.4640137455101581  0.3504764042198758
  0.8783949801795288  0.6270258869761847  0.5013808717800146
  0.1459976543455426  0.3517771546128330  0.5037972531724932
  0.2050260070692644  0.5954586231454684  0.2045351373794873
  0.7872273541630648  0.4072873833586783  0.7894604184755991
  0.1762526386698795  0.7876332433235333  0.4668054938322115
  0.8151102241652524  0.2191146704445615  0.5319535754299025
  0.2693456068433733  0.5648094549977714  0.0015918208815933
  0.7288847347485046  0.4335340537432373  0.9958306936495021
  0.1265759984720773  0.5054023186419201  0.8618634296103949
  0.8736841298638538  0.4919917282173500  0.1355830328786496
  0.9644639707271523  0.6627150355343758  0.0390653312185734
  0.0316731672474688  0.3353713270601020  0.9565565130864897
  0.8233343708667960  0.6027815413519590  0.8987148458502503
  0.1732392825859037  0.3949182739772894  0.0970469223472747
  0.2896164560307568  0.9919972469725593  0.5431290693288275
  0.7041931151658360  0.0120696156500983  0.4611550118941352
  0.1655657112669289  0.1389186518671295  0.5512842792135757
  0.8293091750688859  0.8653603678466553  0.4524450043956492
  0.0777923506707836  0.9566405982067892  0.3568849948362427
  0.9164352575059524  0.0497981633466580  0.6466873093984375
  0.9518850494302029  0.1028262635989705  0.3690981063887406
  0.0389316886852527  0.9025566150630908  0.6343414257090174
 
  0.00000000E+00  0.00000000E+00  0.00000000E+00
  0.00000000E+00  0.00000000E+00  0.00000000E+00
  0.00000000E+00  0.00000000E+00  0.00000000E+00
  0.00000000E+00  0.00000000E+00  0.00000000E+00
  0.00000000E+00  0.00000000E+00  0.00000000E+00
  0.00000000E+00  0.00000000E+00  0.00000000E+00
  0.00000000E+00  0.00000000E+00  0.00000000E+00
  0.00000000E+00  0.00000000E+00  0.00000000E+00
  0.00000000E+00  0.00000000E+00  0.00000000E+00
  0.00000000E+00  0.00000000E+00  0.00000000E+00
  0.00000000E+00  0.00000000E+00  0.00000000E+00
  0.00000000E+00  0.00000000E+00  0.00000000E+00
  0.00000000E+00  0.00000000E+00  0.00000000E+00
  0.00000000E+00  0.00000000E+00  0.00000000E+00
  0.00000000E+00  0.00000000E+00  0.00000000E+00
  0.00000000E+00  0.00000000E+00  0.00000000E+00
  0.00000000E+00  0.00000000E+00  0.00000000E+00
  0.00000000E+00  0.00000000E+00  0.00000000E+00
  0.00000000E+00  0.00000000E+00  0.00000000E+00
  0.00000000E+00  0.00000000E+00  0.00000000E+00
  0.00000000E+00  0.00000000E+00  0.00000000E+00
  0.00000000E+00  0.00000000E+00  0.00000000E+00
  0.00000000E+00  0.00000000E+00  0.00000000E+00
  0.00000000E+00  0.00000000E+00  0.00000000E+00
  0.00000000E+00  0.00000000E+00  0.00000000E+00
  0.00000000E+00  0.00000000E+00  0.00000000E+00
  0.00000000E+00  0.00000000E+00  0.00000000E+00
  0.00000000E+00  0.00000000E+00  0.00000000E+00
  0.00000000E+00  0.00000000E+00  0.00000000E+00
  0.00000000E+00  0.00000000E+00  0.00000000E+00
  0.00000000E+00  0.00000000E+00  0.00000000E+00
  0.00000000E+00  0.00000000E+00  0.00000000E+00
  0.00000000E+00  0.00000000E+00  0.00000000E+00
  0.00000000E+00  0.00000000E+00  0.00000000E+00
  0.00000000E+00  0.00000000E+00  0.00000000E+00
  0.00000000E+00  0.00000000E+00  0.00000000E+00
  0.00000000E+00  0.00000000E+00  0.00000000E+00
  0.00000000E+00  0.00000000E+00  0.00000000E+00
  0.00000000E+00  0.00000000E+00  0.00000000E+00
  0.00000000E+00  0.00000000E+00  0.00000000E+00
  0.00000000E+00  0.00000000E+00  0.00000000E+00
  0.00000000E+00  0.00000000E+00  0.00000000E+00
  0.00000000E+00  0.00000000E+00  0.00000000E+00
  0.00000000E+00  0.00000000E+00  0.00000000E+00
  0.00000000E+00  0.00000000E+00  0.00000000E+00
  0.00000000E+00  0.00000000E+00  0.00000000E+00
  0.00000000E+00  0.00000000E+00  0.00000000E+00
  0.00000000E+00  0.00000000E+00  0.00000000E+00
  0.00000000E+00  0.00000000E+00  0.00000000E+00
  0.00000000E+00  0.00000000E+00  0.00000000E+00
  0.00000000E+00  0.00000000E+00  0.00000000E+00
  0.00000000E+00  0.00000000E+00  0.00000000E+00
  0.00000000E+00  0.00000000E+00  0.00000000E+00
  0.00000000E+00  0.00000000E+00  0.00000000E+00
  0.00000000E+00  0.00000000E+00  0.00000000E+00
  0.00000000E+00  0.00000000E+00  0.00000000E+00
  0.00000000E+00  0.00000000E+00  0.00000000E+00
  0.00000000E+00  0.00000000E+00  0.00000000E+00
  0.00000000E+00  0.00000000E+00  0.00000000E+00
  0.00000000E+00  0.00000000E+00  0.00000000E+00
  0.00000000E+00  0.00000000E+00  0.00000000E+00
  0.00000000E+00  0.00000000E+00  0.00000000E+00
  0.00000000E+00  0.00000000E+00  0.00000000E+00
  0.00000000E+00  0.00000000E+00  0.00000000E+00
  0.00000000E+00  0.00000000E+00  0.00000000E+00
  0.00000000E+00  0.00000000E+00  0.00000000E+00
  0.00000000E+00  0.00000000E+00  0.00000000E+00
  0.00000000E+00  0.00000000E+00  0.00000000E+00
  0.00000000E+00  0.00000000E+00  0.00000000E+00
  0.00000000E+00  0.00000000E+00  0.00000000E+00
  0.00000000E+00  0.00000000E+00  0.00000000E+00
  0.00000000E+00  0.00000000E+00  0.00000000E+00
  0.00000000E+00  0.00000000E+00  0.00000000E+00
  0.00000000E+00  0.00000000E+00  0.00000000E+00
  0.00000000E+00  0.00000000E+00  0.00000000E+00
  0.00000000E+00  0.00000000E+00  0.00000000E+00
  0.00000000E+00  0.00000000E+00  0.00000000E+00
  0.00000000E+00  0.00000000E+00  0.00000000E+00
  0.00000000E+00  0.00000000E+00  0.00000000E+00
  0.00000000E+00  0.00000000E+00  0.00000000E+00
  0.00000000E+00  0.00000000E+00  0.00000000E+00
  0.00000000E+00  0.00000000E+00  0.00000000E+00
  0.00000000E+00  0.00000000E+00  0.00000000E+00
  0.00000000E+00  0.00000000E+00  0.00000000E+00
  0.00000000E+00  0.00000000E+00  0.00000000E+00
  0.00000000E+00  0.00000000E+00  0.00000000E+00
  0.00000000E+00  0.00000000E+00  0.00000000E+00
  0.00000000E+00  0.00000000E+00  0.00000000E+00
  0.00000000E+00  0.00000000E+00  0.00000000E+00
  0.00000000E+00  0.00000000E+00  0.00000000E+00
  0.00000000E+00  0.00000000E+00  0.00000000E+00
  0.00000000E+00  0.00000000E+00  0.00000000E+00
  0.00000000E+00  0.00000000E+00  0.00000000E+00
  0.00000000E+00  0.00000000E+00  0.00000000E+00
