KPOINTS created by Atomic Simulation Environment
0
Gamma
3 1 1 
0 0 0
