Fe  H  C  N  O                          
   1.00000000000000     
    -7.8755780604055303   -0.0221342010076184    1.3620089270563844
    -0.9731614594919148   10.1289927623027776   -5.4824503166599499
     0.8971180228303540  -10.2886243202697631   -6.9893096995931483
   Fe   H    C    N    O 
     2    28    32     4    12
Direct
  0.0000014308340042  0.4999998223777737  0.5000011400986040
  0.4999998404187664  0.9999988857804283  0.4999991478248660
  0.1643135152417301  0.2880769924854505  0.3888904028532068
  0.3356616280853544  0.8989538210509380  0.6110299128949350
  0.8356881714031914  0.7119214092727546  0.6111103901050257
  0.6643383640953857  0.1010433899589955  0.3889691713506735
  0.9828371867169139  0.2318792581206424  0.3924597673728343
  0.5171853766141226  0.8392817395040879  0.6075278685017196
  0.0171647318285650  0.7681200394310679  0.6075426279922169
  0.4828148966897743  0.1607153568805799  0.3924698285466164
  0.2328832996939525  0.6836844306485759  0.7440522911764020
  0.2680478268233060  0.9394827408736717  0.2554077326958719
  0.7671190951591313  0.3163148518271726  0.2559487975297117
  0.7319522612644533  0.0605141512772178  0.7445898482644395
  0.4203622231562605  0.6745315660164195  0.9170270900752158
  0.0806318184574621  0.7573221708510331  0.0823890304356638
  0.5796407182911736  0.3254688222877320  0.0829746588807652
  0.9193671364579359  0.2426753902453456  0.9176091535922808
  0.2174190913752199  0.2741251802945044  0.7662728118734279
  0.2821881138693314  0.5080433282329722  0.2339730989739195
  0.7825842414185047  0.7258754368727836  0.2337307377555220
  0.7178088618821121  0.4919540924231498  0.7660254775721214
  0.0331231894690376  0.3036054058298490  0.6026548685312250
  0.4665120681648602  0.7011291787392508  0.3975502147312895
  0.9668798515437587  0.6963939792435738  0.3973476987088418
  0.5334856418568208  0.2988677222314848  0.6024480618279853
  0.4284504201654187  0.3572820303955453  0.9457995304283031
  0.0717504100466400  0.4115115479504041  0.0541707589332603
  0.5715528022809053  0.6427192360702989  0.0542034083000758
  0.9282467544840856  0.5884858721775714  0.9458281727369382
  0.2334573270424585  0.5949355084022869  0.7531083144096087
  0.2671477494222074  0.8417533535023267  0.2465277621047832
  0.7665451303355724  0.4050643444546296  0.2468934498507593
  0.7328512118015666  0.1582438422991714  0.7534701702867679
  0.3381009481354482  0.5886661320007249  0.8493106941273538
  0.1625180200461287  0.7392670776029107  0.1503198303405426
  0.6619016462394285  0.4113344744572132  0.1506914099045105
  0.8374801727280854  0.2607301912751865  0.8496785196074725
  0.3368699696424571  0.4716800002273303  0.8569226129406928
  0.1633370957417313  0.6147686429642505  0.1429450632640084
  0.6631327638112765  0.5283209626081060  0.1430799525408020
  0.8366603597189837  0.3852288225629792  0.8570533961362656
  0.2250337522965964  0.3673460667180279  0.7656527212569486
  0.2748624139653515  0.6018007357413282  0.2344048538567591
  0.7749692030893769  0.6326545002912596  0.2343502505322377
  0.7251346230342151  0.3981968749900560  0.7655937704628002
  0.1227731386898725  0.3825536508573535  0.6732492916898138
  0.3771342128859061  0.7094074096038270  0.3267924732311229
  0.8772295841220199  0.6174461879773006  0.3267532823184069
  0.6228637414720950  0.2905897935851769  0.6732059306594138
  0.3806642049569788  0.5349403778346300  0.4970528314952674
  0.1193666118510777  0.0377850773956681  0.5028180118122947
  0.6193376987207699  0.4650580956841139  0.5029460191747575
  0.8806331704302224  0.9622137313430486  0.4971820991361540
  0.4439017018556157  0.4048911112681211  0.4568501665105345
  0.0560613501568383  0.9479800419284246  0.5430994438896235
  0.5561001788221063  0.5951069216430369  0.5431475034817410
  0.9439378965810903  0.0520192106364448  0.4569013596520151
  0.4437897942451272  0.4543154662385263  0.9534161855616574
  0.0563212731739284  0.5009129229782019  0.0465418625354701
  0.5562133182367930  0.5456858257515975  0.0465865952131708
  0.9436761511365006  0.4990843431280396  0.9534568306068536
  0.1277207490011989  0.4935615380502796  0.6653256255945621
  0.3725134212781640  0.8282612992016780  0.3345297010457244
  0.8722818995836477  0.5064381378510987  0.3346765408119410
  0.6274854576427487  0.1717359892649526  0.6654685245752887
  0.0424036974124178  0.3039177547527032  0.3879641658732780
  0.4575702757890596  0.9157397316708824  0.6119396624923183
  0.9575982801775638  0.6960813350426989  0.6120383050455729
  0.5424290358364630  0.0842570490201524  0.3880579633534254
  0.2380303744679608  0.5781484762355547  0.4936282040047502
  0.2620305346081011  0.0842990764176648  0.5060939899186536
  0.7619724849830547  0.4218510783807261  0.5063728427104195
  0.7379692548644101  0.9156988445495671  0.4939049977062382
  0.3749690173179943  0.2902155911127693  0.4046261680790693
  0.1249614372681336  0.8854553130420868  0.5952573913816863
  0.6250333741943663  0.7097822404388197  0.5953702699592043
  0.8750382512715404  0.1145443970796052  0.4047440379061698
 
  0.00000000E+00  0.00000000E+00  0.00000000E+00
  0.00000000E+00  0.00000000E+00  0.00000000E+00
  0.00000000E+00  0.00000000E+00  0.00000000E+00
  0.00000000E+00  0.00000000E+00  0.00000000E+00
  0.00000000E+00  0.00000000E+00  0.00000000E+00
  0.00000000E+00  0.00000000E+00  0.00000000E+00
  0.00000000E+00  0.00000000E+00  0.00000000E+00
  0.00000000E+00  0.00000000E+00  0.00000000E+00
  0.00000000E+00  0.00000000E+00  0.00000000E+00
  0.00000000E+00  0.00000000E+00  0.00000000E+00
  0.00000000E+00  0.00000000E+00  0.00000000E+00
  0.00000000E+00  0.00000000E+00  0.00000000E+00
  0.00000000E+00  0.00000000E+00  0.00000000E+00
  0.00000000E+00  0.00000000E+00  0.00000000E+00
  0.00000000E+00  0.00000000E+00  0.00000000E+00
  0.00000000E+00  0.00000000E+00  0.00000000E+00
  0.00000000E+00  0.00000000E+00  0.00000000E+00
  0.00000000E+00  0.00000000E+00  0.00000000E+00
  0.00000000E+00  0.00000000E+00  0.00000000E+00
  0.00000000E+00  0.00000000E+00  0.00000000E+00
  0.00000000E+00  0.00000000E+00  0.00000000E+00
  0.00000000E+00  0.00000000E+00  0.00000000E+00
  0.00000000E+00  0.00000000E+00  0.00000000E+00
  0.00000000E+00  0.00000000E+00  0.00000000E+00
  0.00000000E+00  0.00000000E+00  0.00000000E+00
  0.00000000E+00  0.00000000E+00  0.00000000E+00
  0.00000000E+00  0.00000000E+00  0.00000000E+00
  0.00000000E+00  0.00000000E+00  0.00000000E+00
  0.00000000E+00  0.00000000E+00  0.00000000E+00
  0.00000000E+00  0.00000000E+00  0.00000000E+00
  0.00000000E+00  0.00000000E+00  0.00000000E+00
  0.00000000E+00  0.00000000E+00  0.00000000E+00
  0.00000000E+00  0.00000000E+00  0.00000000E+00
  0.00000000E+00  0.00000000E+00  0.00000000E+00
  0.00000000E+00  0.00000000E+00  0.00000000E+00
  0.00000000E+00  0.00000000E+00  0.00000000E+00
  0.00000000E+00  0.00000000E+00  0.00000000E+00
  0.00000000E+00  0.00000000E+00  0.00000000E+00
  0.00000000E+00  0.00000000E+00  0.00000000E+00
  0.00000000E+00  0.00000000E+00  0.00000000E+00
  0.00000000E+00  0.00000000E+00  0.00000000E+00
  0.00000000E+00  0.00000000E+00  0.00000000E+00
  0.00000000E+00  0.00000000E+00  0.00000000E+00
  0.00000000E+00  0.00000000E+00  0.00000000E+00
  0.00000000E+00  0.00000000E+00  0.00000000E+00
  0.00000000E+00  0.00000000E+00  0.00000000E+00
  0.00000000E+00  0.00000000E+00  0.00000000E+00
  0.00000000E+00  0.00000000E+00  0.00000000E+00
  0.00000000E+00  0.00000000E+00  0.00000000E+00
  0.00000000E+00  0.00000000E+00  0.00000000E+00
  0.00000000E+00  0.00000000E+00  0.00000000E+00
  0.00000000E+00  0.00000000E+00  0.00000000E+00
  0.00000000E+00  0.00000000E+00  0.00000000E+00
  0.00000000E+00  0.00000000E+00  0.00000000E+00
  0.00000000E+00  0.00000000E+00  0.00000000E+00
  0.00000000E+00  0.00000000E+00  0.00000000E+00
  0.00000000E+00  0.00000000E+00  0.00000000E+00
  0.00000000E+00  0.00000000E+00  0.00000000E+00
  0.00000000E+00  0.00000000E+00  0.00000000E+00
  0.00000000E+00  0.00000000E+00  0.00000000E+00
  0.00000000E+00  0.00000000E+00  0.00000000E+00
  0.00000000E+00  0.00000000E+00  0.00000000E+00
  0.00000000E+00  0.00000000E+00  0.00000000E+00
  0.00000000E+00  0.00000000E+00  0.00000000E+00
  0.00000000E+00  0.00000000E+00  0.00000000E+00
  0.00000000E+00  0.00000000E+00  0.00000000E+00
  0.00000000E+00  0.00000000E+00  0.00000000E+00
  0.00000000E+00  0.00000000E+00  0.00000000E+00
  0.00000000E+00  0.00000000E+00  0.00000000E+00
  0.00000000E+00  0.00000000E+00  0.00000000E+00
  0.00000000E+00  0.00000000E+00  0.00000000E+00
  0.00000000E+00  0.00000000E+00  0.00000000E+00
  0.00000000E+00  0.00000000E+00  0.00000000E+00
  0.00000000E+00  0.00000000E+00  0.00000000E+00
  0.00000000E+00  0.00000000E+00  0.00000000E+00
  0.00000000E+00  0.00000000E+00  0.00000000E+00
  0.00000000E+00  0.00000000E+00  0.00000000E+00
  0.00000000E+00  0.00000000E+00  0.00000000E+00
